# Objective value = 1.0706910000000025e+04
I_0_0 4099
I_0_1 5.3899999999999982e+03
I_0_2 4.6720000000000018e+03
I_0_3 5.8020000000000146e+03
I_1_0 80
I_1_1 79.9999999999934
I_1_2 3.7525538232330291e-12
I_1_3 7.9999999999996191e+01
I_2_0 47
I_2_1 4.6999999999997755e+01
I_2_2 5.4528603854464563e-13
I_2_3 4.6999999999997527e+01
I_3_0 57
I_3_1 5.7000000000001243e+01
I_3_2 2.9742874829707944e-13
I_3_3 5.6999999999999694e+01
I_4_0 28
I_4_1 2.8000000000000821e+01
I_4_2 3.1086244689504383e-15
I_4_3 28
I_5_0 124
I_5_1 6.2000000000002238e+01
I_5_2 3.3821834222180769e-12
I_5_3 124
I_6_0 24
I_6_1 1.2000000000000378e+01
I_6_2 2.3999999999995161e+01
I_6_3 1.1999999999999460e+01
I_7_0 30
I_7_1 1.5000000000000185e+01
I_7_2 2.9999999999999822e+01
I_7_3 1.4999999999999817e+01
I_8_0 99
I_8_1 0
I_8_2 9.8999999999990223e+01
I_8_3 0
I_9_0 56
I_9_1 0
I_9_2 5.5999999999999972e+01
I_9_3 0
I_10_0 74
I_10_1 37
I_10_2 7.3999999999995111e+01
I_10_3 3.7000000000000171e+01
I_11_0 48
I_11_1 -4.8941846578427088e-25
I_11_2 4.7999999999999986e+01
I_11_3 0
I_12_0 26
I_12_1 13
I_12_2 2.6000000000000636e+01
I_12_3 1.2999999999999996e+01
I_13_0 85
I_13_1 0
I_13_2 8.5000000000002231e+01
I_13_3 -2.2608106615199064e-12
I_14_0 57
I_14_1 0
I_14_2 5.7000000000001087e+01
I_14_3 -1.1071149343807336e-12
I_15_0 73
I_15_1 2.6304237025636871e-13
I_15_2 7.2999999999999744e+01
I_15_3 0
I_16_0 95
I_16_1 2.6367796834847468e-14
I_16_2 95
I_16_3 2.6367796834847468e-14
I_17_0 69
I_17_1 3.89065037432046e-25
I_17_2 69
I_17_3 0
I_18_0 26
I_18_1 1.3000000000000218e+01
I_18_2 2.5999999999999947e+01
I_18_3 1.2999999999999751e+01
I_19_0 88
I_19_1 4.4000000000001371e+01
I_19_2 8.8000000000000071e+01
I_19_3 44.0000000000017
I_20_0 35
I_20_1 1.4043966952216293e-12
I_20_2 3.4999999999998622e+01
I_20_3 1.4043966952216293e-12
I_21_0 122
I_21_1 61
I_21_2 1.2200000000000480e+02
I_21_3 6.1000000000004796e+01
I_22_0 30
I_22_1 1.5000000000000998e+01
I_22_2 3.0000000000010914e+01
I_22_3 1.5000000000008043e+01
I_23_0 15
I_23_1 1.0058620603103918e-12
I_23_2 1.4999999999998980e+01
I_23_3 1.0058620603103918e-12
I_24_0 158
I_24_1 7.9000000000008157e+01
I_24_2 1.5800000000000048e+02
I_24_3 7.8999999999985590e+01
I_25_0 74
I_25_1 1.6431300764452317e-14
I_25_2 74
I_25_3 1.6431300764452317e-14
I_26_0 58
I_26_1 0
I_26_2 5.7999999999999972e+01
I_26_3 0
I_27_0 29
I_27_1 0
I_27_2 2.8999999999999986e+01
I_27_3 8.7735374521003e-14
I_28_0 62
I_28_1 3.0999999999999932e+01
I_28_2 6.2000000000144269e+01
I_28_3 3.1000000000144450e+01
I_29_0 36
I_29_1 -1.5207834991315394e-12
I_29_2 3.6000000000001549e+01
I_29_3 -1.5207834991315394e-12
I_30_0 14
I_30_1 -1.0180745135812685e-13
I_30_2 1.4000000000000107e+01
I_30_3 -1.0180745135812685e-13
I_31_0 66
I_31_1 0
I_31_2 6.5999999999999233e+01
I_31_3 7.4321859141768362e-13
I_32_0 74
I_32_1 74
I_32_2 3.6999999999999943e+01
I_32_3 0
I_33_0 38
I_33_1 38
I_33_2 19
I_33_3 0
I_34_0 170
I_34_1 170
I_34_2 8.5000000000000441e+01
I_34_3 4.3487657305981178e-13
I_35_0 192
I_35_1 192
I_35_2 9.6000000000000185e+01
I_35_3 -2.9675445531851978e-12
q_1_0 79.9999999999934
q_1_1 1.0346390411086759e-11
q_1_2 1.5999999999999244e+02
q_2_0 4.6999999999997755e+01
q_2_1 2.7906010835465622e-12
q_2_2 9.3999999999996987e+01
q_3_0 5.7000000000001243e+01
q_3_1 -9.4602103928309589e-13
q_3_2 1.1399999999999940e+02
q_4_0 2.8000000000000821e+01
q_4_1 -8.1756823533396528e-13
q_4_2 56
q_5_0 2.2405410859960284e-12
q_5_1 -9.1124385520865743e-13
q_5_2 1.8599999999999662e+02
q_6_0 3.7769787297747826e-13
q_6_1 2.3999999999994706e+01
q_6_2 4.2987835513486061e-12
q_7_0 1.8485213360008856e-13
q_7_1 2.9999999999999613e+01
q_7_2 -7.1054273576010019e-15
q_8_0 0
q_8_1 1.9799999999999022e+02
q_8_2 9.7770680440589786e-12
q_9_0 0
q_9_1 1.1199999999999997e+02
q_9_2 2.8421709430404007e-14
q_10_0 0
q_10_1 7.3999999999995254e+01
q_10_2 5.0633258874844912e-12
q_11_0 -4.8941846578427088e-25
q_11_1 9.5999999999999986e+01
q_11_2 1.4210854715202004e-14
q_12_0 -6.6275417241620007e-26
q_12_1 2.6000000000000576e+01
q_12_2 -6.4111495847564265e-13
q_13_0 0
q_13_1 1.7000000000000222e+02
q_13_2 -4.4919148518066214e-12
q_14_0 0
q_14_1 1.1400000000000108e+02
q_14_2 -2.1942453200936868e-12
q_15_0 2.6304237025636871e-13
q_15_1 1.4599999999999949e+02
q_15_2 2.5579538487363607e-13
q_16_0 2.6367796834847468e-14
q_16_1 1.8999999999999997e+02
q_16_2 2.6367796834847468e-14
q_17_0 3.89065037432046e-25
q_17_1 138
q_17_2 0
q_18_0 2.1782052753650305e-13
q_18_1 2.5999999999999737e+01
q_18_2 -1.9594913395138754e-13
q_19_0 1.3722862786706768e-12
q_19_1 8.7999999999998650e+01
q_19_2 1.6403643007181662e-12
q_20_0 1.4043966952216293e-12
q_20_1 6.9999999999997215e+01
q_20_2 2.7828496025962237e-12
q_21_0 0
q_21_1 1.2200000000000480e+02
q_21_2 0
q_22_0 9.9920072216264089e-13
q_22_1 3.0000000000009937e+01
q_22_2 -2.8705926524712062e-12
q_23_0 1.0058620603103918e-12
q_23_1 2.9999999999997975e+01
q_23_2 2.0254908861261356e-12
q_24_0 8.1568085619210251e-12
q_24_1 1.5799999999999105e+02
q_24_2 -1.4892975741533813e-11
q_25_0 1.6431300764452317e-14
q_25_1 148
q_25_2 1.6431300764452317e-14
q_26_0 0
q_26_1 1.1599999999999997e+02
q_26_2 2.8421709430404007e-14
q_27_0 0
q_27_1 5.7999999999999986e+01
q_27_2 1.01946229236205e-13
q_28_0 -6.7112981838511688e-14
q_28_1 62
q_28_2 1.8474111129738899e-13
q_29_0 -1.5207834991315394e-12
q_29_1 7.2000000000003070e+01
q_29_2 -3.0697666630885578e-12
q_30_0 -1.0180745135812685e-13
q_30_1 2.8000000000000206e+01
q_30_2 -2.0838886172214188e-13
q_31_0 0
q_31_1 1.3199999999999923e+02
q_31_2 1.5106047460385918e-12
q_32_0 37
q_32_1 -1.4210854715202004e-14
q_32_2 5.6843418860808015e-14
q_33_0 19
q_33_1 -8.8817841970012523e-15
q_33_2 1.7763568394002505e-15
q_34_0 85
q_34_1 4.3487657305981168e-13
q_34_2 0
q_35_0 96
q_35_1 1.3621522210828491e-12
q_35_2 -3.1478445836592343e-12
y_0_0 1
y_0_1 1
y_0_2 1
y_1_0 9.9999999999991762e-01
y_1_1 4.6906922790412864e-14
y_1_2 9.9999999999995248e-01
y_2_0 9.9999999999995226e-01
y_2_1 1.1601830607332886e-14
y_2_2 9.9999999999994738e-01
y_3_0 1.0000000000000218e+00
y_3_1 5.2180482157382357e-15
y_3_2 9.9999999999999467e-01
y_4_0 1.0000000000000293e+00
y_4_1 1.1102230246251565e-16
y_4_2 1
y_5_0 3.6137759451548845e-14
y_5_1 -7.91033905045424e-15
y_5_2 9.9999999999998179e-01
y_6_0 3.1474822748123188e-14
y_6_1 9.9999999999978806e-01
y_6_2 1.9023671526952057e-13
y_7_0 1.2323475573339238e-14
y_7_1 9.9999999999998757e-01
y_7_2 0
y_8_0 0
y_8_1 9.9999999999990130e-01
y_8_2 0
y_9_0 0
y_9_1 9.9999999999999956e-01
y_9_2 0
y_10_0 0
y_10_1 1
y_10_2 3.9029423238038679e-14
y_11_0 -1.0196218037172310e-26
y_11_1 9.9999999999999978e-01
y_11_2 0
y_12_0 -5.0981090185861543e-27
y_12_1 1.0000000000000229e+00
y_12_2 0
y_13_0 0
y_13_1 1.0000000000000262e+00
y_13_2 -2.6597772488469487e-14
y_14_0 0
y_14_1 1.0000000000000191e+00
y_14_2 -1.9423069024223395e-14
y_15_0 3.6033201404982015e-15
y_15_1 9.9999999999999645e-01
y_15_2 0
y_16_0 2.7755575615628914e-16
y_16_1 1
y_16_2 2.7755575615628914e-16
y_17_0 5.6386237308992174e-27
y_17_1 1
y_17_2 0
y_18_0 1.6755425195115619e-14
y_18_1 9.9999999999999767e-01
y_18_2 -1.7088492102503169e-14
y_19_0 3.1188324515242654e-14
y_19_1 1
y_19_2 -1.4090889936015243e-14
y_20_0 4.0125619863475120e-14
y_20_1 9.9999999999996059e-01
y_20_2 4.0125619863475120e-14
y_21_0 0
y_21_1 1.0000000000000009e+00
y_21_2 1.7879945118443214e-15
y_22_0 6.6613381477509392e-14
y_22_1 9.9999999999999989e-01
y_22_2 -6.4837024638118066e-14
y_23_0 6.7057470687359455e-14
y_23_1 0.999999999999932
y_23_2 6.7057470687359455e-14
y_24_0 1.0325074129013956e-13
y_24_1 1
y_24_2 -6.3060667798717815e-14
y_25_0 2.2204460492503131e-16
y_25_1 1
y_25_2 2.2204460492503131e-16
y_26_0 0
y_26_1 9.9999999999999956e-01
y_26_2 0
y_27_0 0
y_27_1 9.9999999999999956e-01
y_27_2 3.0253577421035516e-15
y_28_0 -2.1649348980165060e-15
y_28_1 1
y_28_2 1.9428902930914747e-15
y_29_0 -4.2243986086987206e-14
y_29_1 1.0000000000000431e+00
y_29_2 -4.2243986086987206e-14
y_30_0 -7.2719608112947753e-15
y_30_1 1.0000000000000075e+00
y_30_2 -7.2719608112947753e-15
y_31_0 0
y_31_1 9.9999999999998845e-01
y_31_2 1.1260887748752783e-14
y_32_0 1
y_32_1 -1.0730444899867256e-27
y_32_2 0
y_33_0 1
y_33_1 0
y_33_2 0
y_34_0 1
y_34_1 0
y_34_2 0
y_35_0 1
y_35_1 0
y_35_2 -1.5047868163312296e-14
x_0_1_0 9.9999999999989941e-01
x_0_1_1 7.87148124459236e-14
x_0_1_2 9.9999999999975131e-01
x_0_2_0 0
x_0_2_1 0
x_0_2_2 0
x_0_3_0 0
x_0_3_1 0
x_0_3_2 0
x_0_4_0 0
x_0_4_1 0
x_0_4_2 3.3861802251067274e-15
x_0_5_0 5.5039306445792135e-14
x_0_5_1 0
x_0_5_2 9.9999999999977773e-01
x_0_6_0 -6.8667294073065932e-14
x_0_6_1 9.9999999999944844e-01
x_0_6_2 3.8258285428582894e-13
x_0_7_0 0
x_0_7_1 0
x_0_7_2 0
x_0_8_0 0
x_0_8_1 0
x_0_8_2 0
x_0_9_0 0
x_0_9_1 0
x_0_9_2 0
x_0_10_0 0
x_0_10_1 0
x_0_10_2 0
x_0_11_0 0
x_0_11_1 0
x_0_11_2 0
x_0_12_0 0
x_0_12_1 0
x_0_12_2 0
x_0_13_0 0
x_0_13_1 0
x_0_13_2 0
x_0_14_0 0
x_0_14_1 0
x_0_14_2 0
x_0_15_0 0
x_0_15_1 0
x_0_15_2 0
x_0_16_0 0
x_0_16_1 0
x_0_16_2 0
x_0_17_0 0
x_0_17_1 0
x_0_17_2 0
x_0_18_0 0
x_0_18_1 0
x_0_18_2 0
x_0_19_0 0
x_0_19_1 0
x_0_19_2 0
x_0_20_0 0
x_0_20_1 0
x_0_20_2 0
x_0_21_0 0
x_0_21_1 0
x_0_21_2 0
x_0_22_0 0
x_0_22_1 0
x_0_22_2 0
x_0_23_0 0
x_0_23_1 0
x_0_23_2 0
x_0_24_0 0
x_0_24_1 0
x_0_24_2 0
x_0_25_0 0
x_0_25_1 0
x_0_25_2 0
x_0_26_0 0
x_0_26_1 0
x_0_26_2 0
x_0_27_0 0
x_0_27_1 0
x_0_27_2 0
x_0_28_0 0
x_0_28_1 0
x_0_28_2 0
x_0_29_0 0
x_0_29_1 0
x_0_29_2 0
x_0_30_0 0
x_0_30_1 0
x_0_30_2 0
x_0_31_0 -8.8817841970012523e-16
x_0_31_1 1.0000000000005014e+00
x_0_31_2 1.1102230246251565e-16
x_0_32_0 1.0000000000000380e+00
x_0_32_1 0
x_0_32_2 -6.1284310959308641e-14
x_0_33_0 0
x_0_33_1 0
x_0_33_2 0
x_0_34_0 0
x_0_34_1 0
x_0_34_2 0
x_0_35_0 0
x_0_35_1 0
x_0_35_2 0
x_1_2_0 9.9999999999993716e-01
x_1_2_1 2.1926904736346842e-15
x_1_2_2 9.9999999999994249e-01
x_1_3_0 0
x_1_3_1 1.1185496973098452e-14
x_1_3_2 2.2765123119938835e-13
x_1_4_0 0
x_1_4_1 0
x_1_4_2 0
x_1_5_0 0
x_1_5_1 0
x_1_5_2 0
x_1_6_0 0
x_1_6_1 0
x_1_6_2 0
x_1_7_0 0
x_1_7_1 0
x_1_7_2 0
x_1_8_0 0
x_1_8_1 0
x_1_8_2 0
x_1_9_0 0
x_1_9_1 0
x_1_9_2 0
x_1_10_0 0
x_1_10_1 0
x_1_10_2 0
x_1_11_0 0
x_1_11_1 0
x_1_11_2 0
x_1_12_0 0
x_1_12_1 0
x_1_12_2 0
x_1_13_0 0
x_1_13_1 0
x_1_13_2 0
x_1_14_0 0
x_1_14_1 0
x_1_14_2 0
x_1_15_0 0
x_1_15_1 0
x_1_15_2 0
x_1_16_0 0
x_1_16_1 0
x_1_16_2 0
x_1_17_0 0
x_1_17_1 0
x_1_17_2 0
x_1_18_0 0
x_1_18_1 0
x_1_18_2 0
x_1_19_0 0
x_1_19_1 0
x_1_19_2 0
x_1_20_0 0
x_1_20_1 0
x_1_20_2 0
x_1_21_0 0
x_1_21_1 0
x_1_21_2 0
x_1_22_0 0
x_1_22_1 0
x_1_22_2 0
x_1_23_0 0
x_1_23_1 0
x_1_23_2 0
x_1_24_0 0
x_1_24_1 0
x_1_24_2 0
x_1_25_0 0
x_1_25_1 0
x_1_25_2 0
x_1_26_0 0
x_1_26_1 0
x_1_26_2 0
x_1_27_0 0
x_1_27_1 0
x_1_27_2 0
x_1_28_0 0
x_1_28_1 0
x_1_28_2 0
x_1_29_0 0
x_1_29_1 0
x_1_29_2 0
x_1_30_0 0
x_1_30_1 0
x_1_30_2 0
x_1_31_0 0
x_1_31_1 0
x_1_31_2 0
x_1_32_0 0
x_1_32_1 0
x_1_32_2 0
x_1_33_0 0
x_1_33_1 0
x_1_33_2 0
x_1_34_0 0
x_1_34_1 0
x_1_34_2 0
x_1_35_0 0
x_1_35_1 0
x_1_35_2 0
x_2_3_0 0
x_2_3_1 1.3433698597964394e-14
x_2_3_2 9.9999999999995293e-01
x_2_4_0 9.9999999999999933e-01
x_2_4_1 1.2351231148954867e-15
x_2_4_2 0
x_2_5_0 0
x_2_5_1 0
x_2_5_2 0
x_2_6_0 0
x_2_6_1 0
x_2_6_2 0
x_2_7_0 0
x_2_7_1 0
x_2_7_2 0
x_2_8_0 0
x_2_8_1 0
x_2_8_2 0
x_2_9_0 0
x_2_9_1 0
x_2_9_2 0
x_2_10_0 0
x_2_10_1 0
x_2_10_2 0
x_2_11_0 0
x_2_11_1 0
x_2_11_2 0
x_2_12_0 0
x_2_12_1 0
x_2_12_2 0
x_2_13_0 0
x_2_13_1 0
x_2_13_2 0
x_2_14_0 0
x_2_14_1 0
x_2_14_2 0
x_2_15_0 0
x_2_15_1 0
x_2_15_2 0
x_2_16_0 0
x_2_16_1 0
x_2_16_2 0
x_2_17_0 0
x_2_17_1 0
x_2_17_2 0
x_2_18_0 0
x_2_18_1 0
x_2_18_2 0
x_2_19_0 0
x_2_19_1 0
x_2_19_2 0
x_2_20_0 0
x_2_20_1 0
x_2_20_2 0
x_2_21_0 0
x_2_21_1 0
x_2_21_2 0
x_2_22_0 0
x_2_22_1 0
x_2_22_2 0
x_2_23_0 0
x_2_23_1 0
x_2_23_2 0
x_2_24_0 0
x_2_24_1 0
x_2_24_2 0
x_2_25_0 0
x_2_25_1 0
x_2_25_2 0
x_2_26_0 0
x_2_26_1 0
x_2_26_2 0
x_2_27_0 0
x_2_27_1 0
x_2_27_2 0
x_2_28_0 0
x_2_28_1 0
x_2_28_2 0
x_2_29_0 0
x_2_29_1 0
x_2_29_2 0
x_2_30_0 0
x_2_30_1 0
x_2_30_2 0
x_2_31_0 0
x_2_31_1 0
x_2_31_2 0
x_2_32_0 0
x_2_32_1 0
x_2_32_2 0
x_2_33_0 0
x_2_33_1 0
x_2_33_2 0
x_2_34_0 -3.3473224192448470e-14
x_2_34_1 0
x_2_34_2 0
x_2_35_0 0
x_2_35_1 0
x_2_35_2 0
x_3_4_0 0
x_3_4_1 5.5511151231257827e-17
x_3_4_2 0.999999999999995
x_3_5_0 0
x_3_5_1 -7.3274719625260332e-15
x_3_5_2 0
x_3_6_0 0
x_3_6_1 0
x_3_6_2 0
x_3_7_0 0
x_3_7_1 0
x_3_7_2 0
x_3_8_0 0
x_3_8_1 0
x_3_8_2 0
x_3_9_0 0
x_3_9_1 0
x_3_9_2 0
x_3_10_0 0
x_3_10_1 0
x_3_10_2 0
x_3_11_0 0
x_3_11_1 0
x_3_11_2 0
x_3_12_0 0
x_3_12_1 0
x_3_12_2 0
x_3_13_0 0
x_3_13_1 0
x_3_13_2 0
x_3_14_0 0
x_3_14_1 0
x_3_14_2 0
x_3_15_0 0
x_3_15_1 0
x_3_15_2 0
x_3_16_0 0
x_3_16_1 0
x_3_16_2 0
x_3_17_0 0
x_3_17_1 0
x_3_17_2 0
x_3_18_0 0
x_3_18_1 0
x_3_18_2 0
x_3_19_0 0
x_3_19_1 0
x_3_19_2 0
x_3_20_0 0
x_3_20_1 0
x_3_20_2 0
x_3_21_0 0
x_3_21_1 0
x_3_21_2 0
x_3_22_0 0
x_3_22_1 0
x_3_22_2 0
x_3_23_0 0
x_3_23_1 0
x_3_23_2 0
x_3_24_0 0
x_3_24_1 0
x_3_24_2 0
x_3_25_0 0
x_3_25_1 0
x_3_25_2 0
x_3_26_0 0
x_3_26_1 0
x_3_26_2 0
x_3_27_0 0
x_3_27_1 0
x_3_27_2 0
x_3_28_0 0
x_3_28_1 0
x_3_28_2 0
x_3_29_0 0
x_3_29_1 0
x_3_29_2 0
x_3_30_0 0
x_3_30_1 0
x_3_30_2 0
x_3_31_0 0
x_3_31_1 0
x_3_31_2 0
x_3_32_0 0
x_3_32_1 0
x_3_32_2 0
x_3_33_0 0
x_3_33_1 0
x_3_33_2 0
x_3_34_0 1.0000000000000340e+00
x_3_34_1 0
x_3_34_2 0
x_3_35_0 1.0000000000000109e+00
x_3_35_1 0
x_3_35_2 -1.9240165016753963e-13
x_4_5_0 3.2113200987282653e-14
x_4_5_1 -7.1054273576010019e-15
x_4_5_2 1.0000000000000004e+00
x_4_6_0 0
x_4_6_1 0
x_4_6_2 0
x_4_7_0 0
x_4_7_1 0
x_4_7_2 0
x_4_8_0 0
x_4_8_1 0
x_4_8_2 0
x_4_9_0 0
x_4_9_1 0
x_4_9_2 0
x_4_10_0 0
x_4_10_1 0
x_4_10_2 0
x_4_11_0 0
x_4_11_1 0
x_4_11_2 0
x_4_12_0 0
x_4_12_1 0
x_4_12_2 0
x_4_13_0 0
x_4_13_1 0
x_4_13_2 0
x_4_14_0 0
x_4_14_1 0
x_4_14_2 0
x_4_15_0 0
x_4_15_1 0
x_4_15_2 0
x_4_16_0 0
x_4_16_1 0
x_4_16_2 0
x_4_17_0 0
x_4_17_1 0
x_4_17_2 0
x_4_18_0 0
x_4_18_1 0
x_4_18_2 0
x_4_19_0 0
x_4_19_1 0
x_4_19_2 0
x_4_20_0 0
x_4_20_1 0
x_4_20_2 0
x_4_21_0 0
x_4_21_1 0
x_4_21_2 0
x_4_22_0 0
x_4_22_1 0
x_4_22_2 0
x_4_23_0 0
x_4_23_1 0
x_4_23_2 0
x_4_24_0 0
x_4_24_1 0
x_4_24_2 0
x_4_25_0 0
x_4_25_1 0
x_4_25_2 0
x_4_26_0 0
x_4_26_1 0
x_4_26_2 0
x_4_27_0 0
x_4_27_1 0
x_4_27_2 0
x_4_28_0 0
x_4_28_1 0
x_4_28_2 0
x_4_29_0 0
x_4_29_1 0
x_4_29_2 0
x_4_30_0 0
x_4_30_1 0
x_4_30_2 0
x_4_31_0 0
x_4_31_1 0
x_4_31_2 0
x_4_32_0 0
x_4_32_1 0
x_4_32_2 0
x_4_33_0 0
x_4_33_1 0
x_4_33_2 0
x_4_34_0 0
x_4_34_1 0
x_4_34_2 0
x_4_35_0 1.0000000000000118e+00
x_4_35_1 0
x_4_35_2 1.1102230246251565e-16
x_5_6_0 0
x_5_6_1 0
x_5_6_2 0
x_5_7_0 0
x_5_7_1 0
x_5_7_2 0
x_5_8_0 0
x_5_8_1 0
x_5_8_2 0
x_5_9_0 0
x_5_9_1 0
x_5_9_2 0
x_5_10_0 0
x_5_10_1 0
x_5_10_2 0
x_5_11_0 0
x_5_11_1 0
x_5_11_2 0
x_5_12_0 0
x_5_12_1 0
x_5_12_2 0
x_5_13_0 0
x_5_13_1 0
x_5_13_2 0
x_5_14_0 0
x_5_14_1 0
x_5_14_2 0
x_5_15_0 0
x_5_15_1 0
x_5_15_2 0
x_5_16_0 0
x_5_16_1 0
x_5_16_2 0
x_5_17_0 0
x_5_17_1 0
x_5_17_2 0
x_5_18_0 0
x_5_18_1 0
x_5_18_2 0
x_5_19_0 0
x_5_19_1 0
x_5_19_2 0
x_5_20_0 0
x_5_20_1 0
x_5_20_2 0
x_5_21_0 0
x_5_21_1 0
x_5_21_2 0
x_5_22_0 0
x_5_22_1 0
x_5_22_2 0
x_5_23_0 0
x_5_23_1 0
x_5_23_2 0
x_5_24_0 0
x_5_24_1 0
x_5_24_2 0
x_5_25_0 0
x_5_25_1 0
x_5_25_2 0
x_5_26_0 0
x_5_26_1 0
x_5_26_2 0
x_5_27_0 0
x_5_27_1 0
x_5_27_2 0
x_5_28_0 0
x_5_28_1 0
x_5_28_2 0
x_5_29_0 0
x_5_29_1 0
x_5_29_2 0
x_5_30_0 0
x_5_30_1 0
x_5_30_2 0
x_5_31_0 0
x_5_31_1 0
x_5_31_2 0
x_5_32_0 0
x_5_32_1 0
x_5_32_2 0
x_5_33_0 0
x_5_33_1 0
x_5_33_2 0
x_5_34_0 0
x_5_34_1 0
x_5_34_2 0
x_5_35_0 4.2693091939657648e-15
x_5_35_1 0
x_5_35_2 1.8945955915228296e-13
x_6_7_0 0
x_6_7_1 9.9999999999978806e-01
x_6_7_2 0
x_6_8_0 0
x_6_8_1 0
x_6_8_2 0
x_6_9_0 0
x_6_9_1 0
x_6_9_2 0
x_6_10_0 0
x_6_10_1 0
x_6_10_2 0
x_6_11_0 0
x_6_11_1 0
x_6_11_2 0
x_6_12_0 0
x_6_12_1 0
x_6_12_2 0
x_6_13_0 0
x_6_13_1 0
x_6_13_2 0
x_6_14_0 0
x_6_14_1 3.1497027208615691e-13
x_6_14_2 0
x_6_15_0 0
x_6_15_1 0
x_6_15_2 0
x_6_16_0 0
x_6_16_1 0
x_6_16_2 0
x_6_17_0 0
x_6_17_1 0
x_6_17_2 0
x_6_18_0 0
x_6_18_1 0
x_6_18_2 0
x_6_19_0 0
x_6_19_1 0
x_6_19_2 0
x_6_20_0 0
x_6_20_1 0
x_6_20_2 0
x_6_21_0 0
x_6_21_1 0
x_6_21_2 0
x_6_22_0 0
x_6_22_1 0
x_6_22_2 0
x_6_23_0 0
x_6_23_1 0
x_6_23_2 0
x_6_24_0 0
x_6_24_1 0
x_6_24_2 0
x_6_25_0 0
x_6_25_1 0
x_6_25_2 0
x_6_26_0 0
x_6_26_1 0
x_6_26_2 0
x_6_27_0 0
x_6_27_1 0
x_6_27_2 0
x_6_28_0 0
x_6_28_1 0
x_6_28_2 0
x_6_29_0 0
x_6_29_1 0
x_6_29_2 0
x_6_30_0 0
x_6_30_1 0
x_6_30_2 0
x_6_31_0 0
x_6_31_1 0
x_6_31_2 0
x_6_32_0 0
x_6_32_1 0
x_6_32_2 0
x_6_33_0 0
x_6_33_1 0
x_6_33_2 0
x_6_34_0 0
x_6_34_1 0
x_6_34_2 0
x_6_35_0 1.6089291380340080e-14
x_6_35_1 0
x_6_35_2 0
x_7_8_0 1.2323475573339238e-14
x_7_8_1 9.9999999999998734e-01
x_7_8_2 0
x_7_9_0 0
x_7_9_1 1.96787031114809e-13
x_7_9_2 1.7541523789066196e-14
x_7_10_0 0
x_7_10_1 0
x_7_10_2 0
x_7_11_0 0
x_7_11_1 0
x_7_11_2 0
x_7_12_0 0
x_7_12_1 0
x_7_12_2 0
x_7_13_0 0
x_7_13_1 0
x_7_13_2 0
x_7_14_0 0
x_7_14_1 0
x_7_14_2 0
x_7_15_0 0
x_7_15_1 0
x_7_15_2 0
x_7_16_0 0
x_7_16_1 0
x_7_16_2 0
x_7_17_0 0
x_7_17_1 0
x_7_17_2 0
x_7_18_0 0
x_7_18_1 0
x_7_18_2 0
x_7_19_0 1.2323475573339238e-14
x_7_19_1 1.6653345369377348e-16
x_7_19_2 -1.4876988529965820e-14
x_7_20_0 0
x_7_20_1 0
x_7_20_2 0
x_7_21_0 0
x_7_21_1 0
x_7_21_2 0
x_7_22_0 0
x_7_22_1 0
x_7_22_2 0
x_7_23_0 0
x_7_23_1 0
x_7_23_2 0
x_7_24_0 0
x_7_24_1 0
x_7_24_2 0
x_7_25_0 0
x_7_25_1 0
x_7_25_2 0
x_7_26_0 0
x_7_26_1 0
x_7_26_2 0
x_7_27_0 0
x_7_27_1 0
x_7_27_2 0
x_7_28_0 0
x_7_28_1 0
x_7_28_2 0
x_7_29_0 0
x_7_29_1 0
x_7_29_2 0
x_7_30_0 0
x_7_30_1 0
x_7_30_2 0
x_7_31_0 0
x_7_31_1 0
x_7_31_2 0
x_7_32_0 0
x_7_32_1 0
x_7_32_2 0
x_7_33_0 0
x_7_33_1 0
x_7_33_2 0
x_7_34_0 0
x_7_34_1 0
x_7_34_2 0
x_7_35_0 0
x_7_35_1 0
x_7_35_2 0
x_8_9_0 0
x_8_9_1 9.9999999999990385e-01
x_8_9_2 -1.4876988529965820e-14
x_8_10_0 2.0351729412887702e-13
x_8_10_1 0
x_8_10_2 0
x_8_11_0 0
x_8_11_1 0
x_8_11_2 0
x_8_12_0 0
x_8_12_1 0
x_8_12_2 0
x_8_13_0 0
x_8_13_1 0
x_8_13_2 0
x_8_14_0 0
x_8_14_1 0
x_8_14_2 0
x_8_15_0 1.5327075978786513e-13
x_8_15_1 -5.3956838996782608e-14
x_8_15_2 1.7541523789066196e-14
x_8_16_0 0
x_8_16_1 0
x_8_16_2 0
x_8_17_0 0
x_8_17_1 0
x_8_17_2 0
x_8_18_0 0
x_8_18_1 0
x_8_18_2 0
x_8_19_0 -1.7831970270824872e-13
x_8_19_1 0
x_8_19_2 0
x_8_20_0 0
x_8_20_1 0
x_8_20_2 0
x_8_21_0 0
x_8_21_1 0
x_8_21_2 0
x_8_22_0 0
x_8_22_1 0
x_8_22_2 0
x_8_23_0 0
x_8_23_1 0
x_8_23_2 0
x_8_24_0 0
x_8_24_1 0
x_8_24_2 0
x_8_25_0 0
x_8_25_1 0
x_8_25_2 0
x_8_26_0 0
x_8_26_1 0
x_8_26_2 0
x_8_27_0 0
x_8_27_1 0
x_8_27_2 0
x_8_28_0 0
x_8_28_1 0
x_8_28_2 0
x_8_29_0 0
x_8_29_1 0
x_8_29_2 0
x_8_30_0 0
x_8_30_1 0
x_8_30_2 0
x_8_31_0 0
x_8_31_1 0
x_8_31_2 0
x_8_32_0 0
x_8_32_1 0
x_8_32_2 0
x_8_33_0 0
x_8_33_1 0
x_8_33_2 0
x_8_34_0 0
x_8_34_1 0
x_8_34_2 0
x_8_35_0 0
x_8_35_1 0
x_8_35_2 0
x_9_10_0 0
x_9_10_1 1.1768364061026659e-13
x_9_10_2 1.0453981384925441e-14
x_9_11_0 0
x_9_11_1 0
x_9_11_2 0
x_9_12_0 0
x_9_12_1 0
x_9_12_2 0
x_9_13_0 0
x_9_13_1 0
x_9_13_2 0
x_9_14_0 0
x_9_14_1 0.999999999999661
x_9_14_2 0
x_9_15_0 1.0214051826551440e-14
x_9_15_1 8.0482226808599560e-14
x_9_15_2 -2.3110523865651336e-14
x_9_16_0 0
x_9_16_1 0
x_9_16_2 0
x_9_17_0 0
x_9_17_1 0
x_9_17_2 0
x_9_18_0 0
x_9_18_1 0
x_9_18_2 0
x_9_19_0 0
x_9_19_1 0
x_9_19_2 0
x_9_20_0 0
x_9_20_1 0
x_9_20_2 0
x_9_21_0 0
x_9_21_1 0
x_9_21_2 0
x_9_22_0 0
x_9_22_1 0
x_9_22_2 0
x_9_23_0 0
x_9_23_1 0
x_9_23_2 0
x_9_24_0 0
x_9_24_1 0
x_9_24_2 0
x_9_25_0 0
x_9_25_1 0
x_9_25_2 0
x_9_26_0 0
x_9_26_1 0
x_9_26_2 0
x_9_27_0 0
x_9_27_1 0
x_9_27_2 0
x_9_28_0 0
x_9_28_1 0
x_9_28_2 0
x_9_29_0 0
x_9_29_1 0
x_9_29_2 0
x_9_30_0 0
x_9_30_1 0
x_9_30_2 0
x_9_31_0 0
x_9_31_1 0
x_9_31_2 0
x_9_32_0 0
x_9_32_1 0
x_9_32_2 0
x_9_33_0 0
x_9_33_1 0
x_9_33_2 0
x_9_34_0 0
x_9_34_1 0
x_9_34_2 0
x_9_35_0 0
x_9_35_1 0
x_9_35_2 0
x_10_11_0 -4.8192621745455515e-14
x_10_11_1 9.9999999999997280e-01
x_10_11_2 -2.5757174171303632e-14
x_10_12_0 0
x_10_12_1 0
x_10_12_2 0
x_10_13_0 0
x_10_13_1 0
x_10_13_2 0
x_10_14_0 0
x_10_14_1 0
x_10_14_2 0
x_10_15_0 -1.6398441197549772e-13
x_10_15_1 9.9999999999990807e-01
x_10_15_2 4.0394233142907063e-14
x_10_16_0 0
x_10_16_1 0
x_10_16_2 0
x_10_17_0 0
x_10_17_1 0
x_10_17_2 0
x_10_18_0 0
x_10_18_1 0
x_10_18_2 0
x_10_19_0 0
x_10_19_1 0
x_10_19_2 0
x_10_20_0 0
x_10_20_1 0
x_10_20_2 0
x_10_21_0 0
x_10_21_1 0
x_10_21_2 0
x_10_22_0 0
x_10_22_1 0
x_10_22_2 0
x_10_23_0 0
x_10_23_1 0
x_10_23_2 0
x_10_24_0 0
x_10_24_1 0
x_10_24_2 0
x_10_25_0 0
x_10_25_1 0
x_10_25_2 0
x_10_26_0 0
x_10_26_1 0
x_10_26_2 0
x_10_27_0 0
x_10_27_1 0
x_10_27_2 0
x_10_28_0 0
x_10_28_1 0
x_10_28_2 0
x_10_29_0 0
x_10_29_1 0
x_10_29_2 0
x_10_30_0 0
x_10_30_1 0
x_10_30_2 0
x_10_31_0 0
x_10_31_1 0
x_10_31_2 0
x_10_32_0 0
x_10_32_1 0
x_10_32_2 0
x_10_33_0 0
x_10_33_1 0
x_10_33_2 0
x_10_34_0 0
x_10_34_1 0
x_10_34_2 0
x_10_35_0 0
x_10_35_1 0
x_10_35_2 0
x_11_12_0 0
x_11_12_1 0
x_11_12_2 0
x_11_13_0 -6.0720256970271673e-14
x_11_13_1 1.0000000000000027e+00
x_11_13_2 3.4194869158454821e-14
x_11_14_0 0
x_11_14_1 9.3813845580825728e-15
x_11_14_2 -6.4392935428361040e-15
x_11_15_0 0
x_11_15_1 0
x_11_15_2 0
x_11_16_0 0
x_11_16_1 0
x_11_16_2 0
x_11_17_0 0
x_11_17_1 0
x_11_17_2 0
x_11_18_0 0
x_11_18_1 0
x_11_18_2 0
x_11_19_0 0
x_11_19_1 0
x_11_19_2 0
x_11_20_0 0
x_11_20_1 0
x_11_20_2 0
x_11_21_0 0
x_11_21_1 0
x_11_21_2 0
x_11_22_0 0
x_11_22_1 0
x_11_22_2 0
x_11_23_0 0
x_11_23_1 0
x_11_23_2 0
x_11_24_0 0
x_11_24_1 0
x_11_24_2 0
x_11_25_0 0
x_11_25_1 0
x_11_25_2 0
x_11_26_0 0
x_11_26_1 0
x_11_26_2 0
x_11_27_0 0
x_11_27_1 0
x_11_27_2 0
x_11_28_0 0
x_11_28_1 0
x_11_28_2 0
x_11_29_0 0
x_11_29_1 0
x_11_29_2 0
x_11_30_0 0
x_11_30_1 0
x_11_30_2 0
x_11_31_0 0
x_11_31_1 0
x_11_31_2 0
x_11_32_0 0
x_11_32_1 0
x_11_32_2 0
x_11_33_0 0
x_11_33_1 0
x_11_33_2 0
x_11_34_0 0
x_11_34_1 0
x_11_34_2 0
x_11_35_0 0
x_11_35_1 0
x_11_35_2 0
x_12_13_0 -1.0196218037172309e-26
x_12_13_1 9.9999999999997014e-01
x_12_13_2 -8.3266726857082953e-17
x_12_14_0 0
x_12_14_1 9.9999999999996925e-01
x_12_14_2 3.0198066269804258e-14
x_12_15_0 0
x_12_15_1 0
x_12_15_2 0
x_12_16_0 0
x_12_16_1 0
x_12_16_2 0
x_12_17_0 0
x_12_17_1 0
x_12_17_2 0
x_12_18_0 0
x_12_18_1 0
x_12_18_2 0
x_12_19_0 0
x_12_19_1 0
x_12_19_2 0
x_12_20_0 0
x_12_20_1 0
x_12_20_2 0
x_12_21_0 0
x_12_21_1 0
x_12_21_2 0
x_12_22_0 0
x_12_22_1 0
x_12_22_2 0
x_12_23_0 0
x_12_23_1 0
x_12_23_2 0
x_12_24_0 0
x_12_24_1 0
x_12_24_2 0
x_12_25_0 0
x_12_25_1 0
x_12_25_2 0
x_12_26_0 0
x_12_26_1 0
x_12_26_2 0
x_12_27_0 0
x_12_27_1 0
x_12_27_2 0
x_12_28_0 0
x_12_28_1 0
x_12_28_2 0
x_12_29_0 0
x_12_29_1 0
x_12_29_2 0
x_12_30_0 0
x_12_30_1 0
x_12_30_2 0
x_12_31_0 0
x_12_31_1 0
x_12_31_2 0
x_12_32_0 0
x_12_32_1 0
x_12_32_2 0
x_12_33_0 0
x_12_33_1 0
x_12_33_2 0
x_12_34_0 0
x_12_34_1 0
x_12_34_2 0
x_12_35_0 0
x_12_35_1 0
x_12_35_2 0
x_13_14_0 6.05537235165779e-14
x_13_14_1 3.0753177782116836e-14
x_13_14_2 -3.4638958368304884e-14
x_13_15_0 0
x_13_15_1 0
x_13_15_2 0
x_13_16_0 0
x_13_16_1 0
x_13_16_2 0
x_13_17_0 0
x_13_17_1 0
x_13_17_2 0
x_13_18_0 0
x_13_18_1 0
x_13_18_2 0
x_13_19_0 0
x_13_19_1 0
x_13_19_2 0
x_13_20_0 0
x_13_20_1 0
x_13_20_2 0
x_13_21_0 0
x_13_21_1 0
x_13_21_2 0
x_13_22_0 0
x_13_22_1 0
x_13_22_2 0
x_13_23_0 0
x_13_23_1 0
x_13_23_2 0
x_13_24_0 0
x_13_24_1 0
x_13_24_2 0
x_13_25_0 0
x_13_25_1 0
x_13_25_2 0
x_13_26_0 0
x_13_26_1 0
x_13_26_2 0
x_13_27_0 0
x_13_27_1 0
x_13_27_2 0
x_13_28_0 0
x_13_28_1 0
x_13_28_2 0
x_13_29_0 0
x_13_29_1 0
x_13_29_2 0
x_13_30_0 0
x_13_30_1 0
x_13_30_2 0
x_13_31_0 0
x_13_31_1 0
x_13_31_2 0
x_13_32_0 0
x_13_32_1 0
x_13_32_2 0
x_13_33_0 0
x_13_33_1 0
x_13_33_2 0
x_13_34_0 0
x_13_34_1 0
x_13_34_2 0
x_13_35_0 0
x_13_35_1 0
x_13_35_2 0
x_14_15_0 0
x_14_15_1 0
x_14_15_2 0
x_14_16_0 0
x_14_16_1 0
x_14_16_2 0
x_14_17_0 0
x_14_17_1 0
x_14_17_2 0
x_14_18_0 0
x_14_18_1 0
x_14_18_2 0
x_14_19_0 0
x_14_19_1 0
x_14_19_2 0
x_14_20_0 0
x_14_20_1 0
x_14_20_2 0
x_14_21_0 0
x_14_21_1 0
x_14_21_2 0
x_14_22_0 0
x_14_22_1 0
x_14_22_2 0
x_14_23_0 0
x_14_23_1 0
x_14_23_2 0
x_14_24_0 0
x_14_24_1 0
x_14_24_2 0
x_14_25_0 0
x_14_25_1 0
x_14_25_2 0
x_14_26_0 0
x_14_26_1 0
x_14_26_2 0
x_14_27_0 0
x_14_27_1 0
x_14_27_2 0
x_14_28_0 0
x_14_28_1 0
x_14_28_2 0
x_14_29_0 0
x_14_29_1 0
x_14_29_2 0
x_14_30_0 0
x_14_30_1 0
x_14_30_2 0
x_14_31_0 0
x_14_31_1 0
x_14_31_2 0
x_14_32_0 0
x_14_32_1 0
x_14_32_2 0
x_14_33_0 0
x_14_33_1 0
x_14_33_2 0
x_14_34_0 0
x_14_34_1 0
x_14_34_2 0
x_14_35_0 -1.5201112960639955e-14
x_14_35_1 -1.1102230246251565e-16
x_14_35_2 0
x_15_16_0 1.1102230246251565e-16
x_15_16_1 9.9999999999999956e-01
x_15_16_2 0
x_15_17_0 0
x_15_17_1 0
x_15_17_2 0
x_15_18_0 0
x_15_18_1 0
x_15_18_2 0
x_15_19_0 0
x_15_19_1 0
x_15_19_2 -1.6395530857555602e-14
x_15_20_0 0
x_15_20_1 0
x_15_20_2 0
x_15_21_0 0
x_15_21_1 0
x_15_21_2 0
x_15_22_0 0
x_15_22_1 0
x_15_22_2 0
x_15_23_0 0
x_15_23_1 0
x_15_23_2 0
x_15_24_0 0
x_15_24_1 0
x_15_24_2 0
x_15_25_0 0
x_15_25_1 0
x_15_25_2 0
x_15_26_0 0
x_15_26_1 0
x_15_26_2 0
x_15_27_0 0
x_15_27_1 0
x_15_27_2 0
x_15_28_0 0
x_15_28_1 0
x_15_28_2 0
x_15_29_0 0
x_15_29_1 0
x_15_29_2 0
x_15_30_0 0
x_15_30_1 0
x_15_30_2 0
x_15_31_0 0
x_15_31_1 0
x_15_31_2 0
x_15_32_0 0
x_15_32_1 0
x_15_32_2 0
x_15_33_0 0
x_15_33_1 0
x_15_33_2 0
x_15_34_0 0
x_15_34_1 0
x_15_34_2 0
x_15_35_0 0
x_15_35_1 0
x_15_35_2 0
x_16_17_0 1.1277247461798435e-26
x_16_17_1 1
x_16_17_2 5.5511151231257827e-16
x_16_18_0 0
x_16_18_1 0
x_16_18_2 0
x_16_19_0 0
x_16_19_1 0
x_16_19_2 0
x_16_20_0 0
x_16_20_1 0
x_16_20_2 0
x_16_21_0 0
x_16_21_1 0
x_16_21_2 0
x_16_22_0 0
x_16_22_1 0
x_16_22_2 0
x_16_23_0 0
x_16_23_1 0
x_16_23_2 0
x_16_24_0 0
x_16_24_1 0
x_16_24_2 0
x_16_25_0 0
x_16_25_1 0
x_16_25_2 0
x_16_26_0 0
x_16_26_1 0
x_16_26_2 0
x_16_27_0 0
x_16_27_1 0
x_16_27_2 0
x_16_28_0 0
x_16_28_1 0
x_16_28_2 0
x_16_29_0 0
x_16_29_1 0
x_16_29_2 0
x_16_30_0 0
x_16_30_1 0
x_16_30_2 0
x_16_31_0 0
x_16_31_1 0
x_16_31_2 0
x_16_32_0 0
x_16_32_1 0
x_16_32_2 0
x_16_33_0 0
x_16_33_1 0
x_16_33_2 0
x_16_34_0 0
x_16_34_1 0
x_16_34_2 0
x_16_35_0 0
x_16_35_1 0
x_16_35_2 0
x_17_18_0 0
x_17_18_1 -1.1277247461798435e-26
x_17_18_2 -2.6396480555906086e-14
x_17_19_0 0
x_17_19_1 9.9999999999999811e-01
x_17_19_2 1.7514696358905010e-14
x_17_20_0 0
x_17_20_1 0
x_17_20_2 0
x_17_21_0 0
x_17_21_1 0
x_17_21_2 0
x_17_22_0 0
x_17_22_1 0
x_17_22_2 0
x_17_23_0 0
x_17_23_1 0
x_17_23_2 0
x_17_24_0 0
x_17_24_1 0
x_17_24_2 0
x_17_25_0 0
x_17_25_1 0
x_17_25_2 0
x_17_26_0 0
x_17_26_1 0
x_17_26_2 0
x_17_27_0 0
x_17_27_1 0
x_17_27_2 0
x_17_28_0 0
x_17_28_1 0
x_17_28_2 0
x_17_29_0 0
x_17_29_1 0
x_17_29_2 0
x_17_30_0 0
x_17_30_1 0
x_17_30_2 0
x_17_31_0 0
x_17_31_1 0
x_17_31_2 0
x_17_32_0 0
x_17_32_1 0
x_17_32_2 0
x_17_33_0 0
x_17_33_1 0
x_17_33_2 0
x_17_34_0 0
x_17_34_1 0
x_17_34_2 0
x_17_35_0 0
x_17_35_1 0
x_17_35_2 0
x_18_19_0 1.6964207816272392e-13
x_18_19_1 1
x_18_19_2 -1.4201912238477759e-14
x_18_20_0 -9.2166395997336571e-14
x_18_20_1 9.9999999999999756e-01
x_18_20_2 5.4222078672148719e-15
x_18_21_0 0
x_18_21_1 0
x_18_21_2 0
x_18_22_0 0
x_18_22_1 0
x_18_22_2 0
x_18_23_0 0
x_18_23_1 0
x_18_23_2 0
x_18_24_0 0
x_18_24_1 0
x_18_24_2 0
x_18_25_0 0
x_18_25_1 0
x_18_25_2 0
x_18_26_0 0
x_18_26_1 0
x_18_26_2 0
x_18_27_0 0
x_18_27_1 0
x_18_27_2 0
x_18_28_0 0
x_18_28_1 0
x_18_28_2 0
x_18_29_0 0
x_18_29_1 0
x_18_29_2 0
x_18_30_0 0
x_18_30_1 0
x_18_30_2 0
x_18_31_0 0
x_18_31_1 0
x_18_31_2 0
x_18_32_0 0
x_18_32_1 0
x_18_32_2 0
x_18_33_0 0
x_18_33_1 0
x_18_33_2 0
x_18_34_0 0
x_18_34_1 0
x_18_34_2 0
x_18_35_0 0
x_18_35_1 0
x_18_35_2 0
x_19_20_0 0
x_19_20_1 0
x_19_20_2 0
x_19_21_0 0
x_19_21_1 0
x_19_21_2 0
x_19_22_0 0
x_19_22_1 0
x_19_22_2 0
x_19_23_0 0
x_19_23_1 0
x_19_23_2 0
x_19_24_0 0
x_19_24_1 0
x_19_24_2 0
x_19_25_0 0
x_19_25_1 0
x_19_25_2 0
x_19_26_0 0
x_19_26_1 0
x_19_26_2 0
x_19_27_0 0
x_19_27_1 0
x_19_27_2 0
x_19_28_0 0
x_19_28_1 0
x_19_28_2 0
x_19_29_0 0
x_19_29_1 0
x_19_29_2 0
x_19_30_0 0
x_19_30_1 0
x_19_30_2 0
x_19_31_0 0
x_19_31_1 0
x_19_31_2 0
x_19_32_0 0
x_19_32_1 0
x_19_32_2 0
x_19_33_0 0
x_19_33_1 0
x_19_33_2 0
x_19_34_0 0
x_19_34_1 0
x_19_34_2 0
x_19_35_0 0
x_19_35_1 0
x_19_35_2 0
x_20_21_0 0
x_20_21_1 1.0000000000000031e+00
x_20_21_2 8.5931262105969269e-14
x_20_22_0 0
x_20_22_1 0
x_20_22_2 0
x_20_23_0 0
x_20_23_1 -2.3914203950425872e-13
x_20_23_2 0
x_20_24_0 1.7141843500212417e-13
x_20_24_1 0
x_20_24_2 0
x_20_25_0 0
x_20_25_1 1.6475709685437323e-13
x_20_25_2 0
x_20_26_0 0
x_20_26_1 0
x_20_26_2 0
x_20_27_0 0
x_20_27_1 0
x_20_27_2 0
x_20_28_0 0
x_20_28_1 0
x_20_28_2 0
x_20_29_0 0
x_20_29_1 0
x_20_29_2 0
x_20_30_0 0
x_20_30_1 0
x_20_30_2 0
x_20_31_0 0
x_20_31_1 0
x_20_31_2 0
x_20_32_0 0
x_20_32_1 0
x_20_32_2 0
x_20_33_0 0
x_20_33_1 0
x_20_33_2 0
x_20_34_0 0
x_20_34_1 0
x_20_34_2 0
x_20_35_0 0
x_20_35_1 0
x_20_35_2 0
x_21_22_0 0
x_21_22_1 0
x_21_22_2 0
x_21_23_0 0
x_21_23_1 0
x_21_23_2 0
x_21_24_0 0
x_21_24_1 1.0000000000000027e+00
x_21_24_2 -8.5931262105987116e-14
x_21_25_0 0
x_21_25_1 0
x_21_25_2 0
x_21_26_0 0
x_21_26_1 0
x_21_26_2 0
x_21_27_0 0
x_21_27_1 0
x_21_27_2 0
x_21_28_0 0
x_21_28_1 0
x_21_28_2 0
x_21_29_0 0
x_21_29_1 0
x_21_29_2 0
x_21_30_0 0
x_21_30_1 0
x_21_30_2 0
x_21_31_0 0
x_21_31_1 0
x_21_31_2 0
x_21_32_0 0
x_21_32_1 0
x_21_32_2 0
x_21_33_0 0
x_21_33_1 0
x_21_33_2 0
x_21_34_0 0
x_21_34_1 0
x_21_34_2 0
x_21_35_0 0
x_21_35_1 0
x_21_35_2 0
x_22_23_0 7.2830630415410269e-14
x_22_23_1 1.0000000000000031e+00
x_22_23_2 6.7057470687359455e-14
x_22_24_0 6.6169292267659330e-14
x_22_24_1 9.9999999999999711e-01
x_22_24_2 -6.4837024638109142e-14
x_22_25_0 0
x_22_25_1 0
x_22_25_2 0
x_22_26_0 0
x_22_26_1 0
x_22_26_2 0
x_22_27_0 0
x_22_27_1 0
x_22_27_2 0
x_22_28_0 0
x_22_28_1 0
x_22_28_2 0
x_22_29_0 0
x_22_29_1 0
x_22_29_2 0
x_22_30_0 -5.5511151231257827e-15
x_22_30_1 0
x_22_30_2 -1.3056222769591841e-13
x_22_31_0 0
x_22_31_1 0
x_22_31_2 0
x_22_32_0 0
x_22_32_1 0
x_22_32_2 0
x_22_33_0 0
x_22_33_1 0
x_22_33_2 0
x_22_34_0 0
x_22_34_1 0
x_22_34_2 0
x_22_35_0 0
x_22_35_1 0
x_22_35_2 0
x_23_24_0 -5.5511151231257827e-15
x_23_24_1 0
x_23_24_2 0
x_23_25_0 1.3322676295501878e-15
x_23_25_1 0
x_23_25_2 6.8278716014447127e-15
x_23_26_0 0
x_23_26_1 0
x_23_26_2 0
x_23_27_0 0
x_23_27_1 0
x_23_27_2 0
x_23_28_0 0
x_23_28_1 0
x_23_28_2 0
x_23_29_0 0
x_23_29_1 1.9051427102567686e-13
x_23_29_2 0
x_23_30_0 7.5939254884360707e-14
x_23_30_1 9.9999999999993316e-01
x_23_30_2 5.1098014708372830e-14
x_23_31_0 0
x_23_31_1 0
x_23_31_2 0
x_23_32_0 0
x_23_32_1 0
x_23_32_2 0
x_23_33_0 0
x_23_33_1 0
x_23_33_2 0
x_23_34_0 0
x_23_34_1 0
x_23_34_2 0
x_23_35_0 0
x_23_35_1 0
x_23_35_2 0
x_24_25_0 0
x_24_25_1 0
x_24_25_2 0
x_24_26_0 0
x_24_26_1 0
x_24_26_2 0
x_24_27_0 0
x_24_27_1 0
x_24_27_2 0
x_24_28_0 0
x_24_28_1 0
x_24_28_2 0
x_24_29_0 0
x_24_29_1 0
x_24_29_2 0
x_24_30_0 -9.7699626167013776e-14
x_24_30_1 0
x_24_30_2 0
x_24_31_0 0
x_24_31_1 0
x_24_31_2 0
x_24_32_0 0
x_24_32_1 0
x_24_32_2 0
x_24_33_0 0
x_24_33_1 0
x_24_33_2 0
x_24_34_0 0
x_24_34_1 0
x_24_34_2 0
x_24_35_0 0
x_24_35_1 0
x_24_35_2 0
x_25_26_0 0
x_25_26_1 9.9999999999999822e-01
x_25_26_2 -4.3853809472693683e-15
x_25_27_0 0
x_25_27_1 0
x_25_27_2 0
x_25_28_0 0
x_25_28_1 0
x_25_28_2 0
x_25_29_0 0
x_25_29_1 0
x_25_29_2 0
x_25_30_0 0
x_25_30_1 0
x_25_30_2 0
x_25_31_0 9.9920072216264089e-16
x_25_31_1 9.9999999999983535e-01
x_25_31_2 0
x_25_32_0 0
x_25_32_1 0
x_25_32_2 0
x_25_33_0 0
x_25_33_1 0
x_25_33_2 0
x_25_34_0 0
x_25_34_1 0
x_25_34_2 0
x_25_35_0 0
x_25_35_1 0
x_25_35_2 0
x_26_27_0 0
x_26_27_1 1.0000000000000004e+00
x_26_27_2 0
x_26_28_0 0
x_26_28_1 0
x_26_28_2 0
x_26_29_0 0
x_26_29_1 0
x_26_29_2 0
x_26_30_0 0
x_26_30_1 0
x_26_30_2 0
x_26_31_0 0
x_26_31_1 1.3322676295501878e-15
x_26_31_2 0
x_26_32_0 0
x_26_32_1 0
x_26_32_2 0
x_26_33_0 0
x_26_33_1 0
x_26_33_2 0
x_26_34_0 0
x_26_34_1 0
x_26_34_2 0
x_26_35_0 0
x_26_35_1 0
x_26_35_2 0
x_27_28_0 3.3362201889985954e-14
x_27_28_1 1.0000000000001081e+00
x_27_28_2 1.0658141036401503e-14
x_27_29_0 0
x_27_29_1 -3.4194869158454821e-14
x_27_29_2 0
x_27_30_0 0
x_27_30_1 0
x_27_30_2 0
x_27_31_0 0
x_27_31_1 5.7731597280508140e-15
x_27_31_2 0
x_27_32_0 -3.7969627442180354e-14
x_27_32_1 0
x_27_32_2 0
x_27_33_0 0
x_27_33_1 0
x_27_33_2 0
x_27_34_0 0
x_27_34_1 0
x_27_34_2 0
x_27_35_0 0
x_27_35_1 0
x_27_35_2 0
x_28_29_0 -7.2053474298172659e-14
x_28_29_1 9.9999999999988765e-01
x_28_29_2 -7.0277117458772409e-14
x_28_30_0 3.5138558729386205e-14
x_28_30_1 0
x_28_30_2 1.8651746813702630e-14
x_28_31_0 0
x_28_31_1 0
x_28_31_2 0
x_28_32_0 0
x_28_32_1 0
x_28_32_2 0
x_28_33_0 0
x_28_33_1 0
x_28_33_2 0
x_28_34_0 0
x_28_34_1 0
x_28_34_2 0
x_28_35_0 0
x_28_35_1 0
x_28_35_2 0
x_29_30_0 -6.8833827526759706e-15
x_29_30_1 1.0000000000000431e+00
x_29_30_2 -7.2719608112947753e-15
x_29_31_0 0
x_29_31_1 0
x_29_31_2 0
x_29_32_0 0
x_29_32_1 0
x_29_32_2 0
x_29_33_0 0
x_29_33_1 0
x_29_33_2 0
x_29_34_0 0
x_29_34_1 0
x_29_34_2 0
x_29_35_0 0
x_29_35_1 0
x_29_35_2 0
x_30_31_0 0
x_30_31_1 0
x_30_31_2 0
x_30_32_0 0
x_30_32_1 0
x_30_32_2 0
x_30_33_0 0
x_30_33_1 0
x_30_33_2 0
x_30_34_0 0
x_30_34_1 0
x_30_34_2 0
x_30_35_0 0
x_30_35_1 0
x_30_35_2 0
x_31_32_0 0
x_31_32_1 0
x_31_32_2 0
x_31_33_0 0
x_31_33_1 0
x_31_33_2 0
x_31_34_0 0
x_31_34_1 0
x_31_34_2 0
x_31_35_0 0
x_31_35_1 0
x_31_35_2 0
x_32_33_0 1
x_32_33_1 0
x_32_33_2 5.5511151231257827e-17
x_32_34_0 0
x_32_34_1 0
x_32_34_2 0
x_32_35_0 0
x_32_35_1 0
x_32_35_2 0
x_33_34_0 1
x_33_34_1 0
x_33_34_2 0
x_33_35_0 0
x_33_35_1 0
x_33_35_2 0
x_34_35_0 0
x_34_35_1 0
x_34_35_2 0
